! Freq
%output 
xyzfile=True 
end 
%scf 
maxiter 250 
end
%output
Print[P_Hirshfeld] = 1
end
% maxcore
4000
%pal nprocs 96
end
*xyz 0 1
H   -31.68210169 -29.81907019 -13.47406073
C   -21.52248312 -27.35305765 -9.46202330 
C   -21.94602194 -28.16854683 -8.24945592 
C   -23.45806046 -28.29457257 -8.20958302 
C   -24.14340772 -26.93859824 -8.34518961 
C   -23.55650684 -26.13816986 -9.50971880 
C   -24.03013818 -24.70228302 -9.55843540 
O   -21.33425425 -29.41982110 -8.30389522 
O   -23.79032627 -28.92469251 -7.01545643 
O   -25.50201071 -27.20287469 -8.57255186 
O   -22.15352915 -26.11925964 -9.40830894 
O   -23.75013608 -24.17550208 -10.82659866
H   -20.45207726 -27.15485979 -9.43078961 
H   -21.61858390 -27.62442028 -7.35878668 
H   -23.76721866 -28.89859926 -9.06595687 
H   -24.01492556 -26.38684703 -7.40938787 
H   -23.85893455 -26.62701966 -10.43574024
H   -25.10080020 -24.66709908 -9.36019962 
H   -23.50980572 -24.13855779 -8.78005661 
H   -21.68680977 -29.95923694 -7.60986932 
H   -24.73526488 -28.98737597 -6.92253032 
H   -23.85497727 -23.23735610 -10.82291033
C   -20.89959191 -29.03395198 -14.44774613
C   -20.18544715 -29.81834676 -13.35600963
C   -20.89248349 -29.61899329 -12.03231856
C   -21.02316625 -28.13434084 -11.72187040
C   -21.64069703 -27.37313234 -12.89658340
C   -21.57861023 -25.85825875 -12.74994024
O   -20.12488128 -31.16245889 -13.72134773
O   -21.86434467 -28.04377130 -10.60099156
O   -20.97461661 -27.70277520 -14.09275484
O   -22.62848675 -25.22541951 -13.41384901
H   -20.31127731 -29.06568596 -15.35996671
H   -19.17505775 -29.40610606 -13.27344587
H   -20.03314654 -27.73363091 -11.48486906
H   -22.68705487 -27.66928132 -12.95734699
H   -21.58621200 -25.58816755 -11.69725254
H   -20.63090097 -25.52679671 -13.17781922
H   -19.83033305 -31.66895998 -12.97753323
H   -23.22858233 -24.88767521 -12.76446658
C   -24.14376464 -30.57083552 -18.21523024
C   -22.67695880 -30.97322954 -18.06780438
C   -22.23926102 -30.97279188 -16.61645466
C   -22.60096308 -29.63057905 -15.99175288
C   -24.12112269 -29.46933215 -16.10679059
C   -24.60251705 -28.20389107 -15.41571536
O   -22.49630173 -32.22761501 -18.65183782
O   -20.87173893 -31.24521466 -16.59472252
O   -22.15500765 -29.58115834 -14.66647271
O   -24.40631775 -29.41405282 -17.49049393
H   -24.36058417 -30.33839046 -19.25081862
H   -22.07729974 -30.22546264 -18.59592382
H   -22.78554527 -31.75246724 -16.07981544
H   -22.13633416 -28.82162492 -16.56160688
H   -24.62424657 -30.32283346 -15.66640664
H   -21.59176482 -32.48046396 -18.53105126
H   -20.59529416 -31.46906312 -15.71311184
C   -28.29055596 -33.82800149 -18.25213463
C   -26.98220898 -34.58884585 -18.37762725
C   -25.83128983 -33.70930100 -17.92797331
C   -25.83262347 -32.31941194 -18.56609522
C   -27.23867399 -31.70473583 -18.56211142
C   -27.48172628 -30.53024563 -19.50712782
O   -27.05260977 -35.75591373 -17.62176304
O   -24.65020210 -34.39467031 -18.20507350
O   -24.94442748 -31.59603319 -17.75596166
O   -28.18536443 -32.66365733 -18.99075362
O   -26.55561615 -29.50294430 -19.42678690
H   -29.10953675 -34.40249806 -18.68646045
H   -26.85051933 -34.82377602 -19.43812232
H   -25.93866440 -33.55296225 -16.85266495
H   -25.45040208 -32.39451241 -19.58779122
H   -27.44474813 -31.40338095 -17.53504216
H   -27.45216355 -30.90696770 -20.52914908
H   -28.49783182 -30.17197154 -19.32015992
H   -26.19788496 -36.16286899 -17.62163871
H   -23.91020827 -33.80219800 -18.13694676
H   -26.43676743 -29.19030842 -18.54062305
C   -31.24646208 -32.14632397 -14.24106942
C   -30.80063968 -33.58630030 -14.04593247
C   -29.57829575 -33.85546549 -14.89698674
C   -29.81243398 -33.48637659 -16.36010173
C   -30.42189388 -32.08198267 -16.48456966
C   -30.99775330 -31.74140172 -17.84405615
O   -30.55866935 -33.80736198 -12.69049490
O   -29.24133358 -35.19933910 -14.76511914
O   -28.53026935 -33.56750861 -16.92011900
O   -31.48708125 -31.92116329 -15.57718539
O   -31.11266065 -30.35082856 -17.92140989
H   -32.19231329 -31.98177235 -13.73402278
H   -31.61805316 -34.22528279 -14.39298326
H   -28.76677668 -33.22256900 -14.53111332
H   -30.47216384 -34.23386030 -16.81339729
H   -29.62929678 -31.37085637 -16.26063343
H   -30.35216729 -32.11546666 -18.63321007
H   -31.97503013 -32.22605229 -17.92471474
H   -30.12987115 -34.64505988 -12.58459793
H   -28.49388175 -35.38967795 -15.31869274
H   -31.53349055 -30.10326407 -18.72862000
C   -30.41213774 -27.97915330 -11.17192128
C   -31.33340132 -29.16529672 -10.88179876
C   -30.85268177 -30.42393078 -11.57709279
C   -30.71894817 -30.13978124 -13.06726507
C   -29.71479068 -28.99849161 -13.23222364
O   -31.42243791 -29.35443057 -9.50327621 
O   -31.76060189 -31.44045441 -11.28597189
O   -30.27769616 -31.28382499 -13.73959320
O   -30.20678337 -27.87253233 -12.53826729
H   -30.88981080 -27.05558446 -10.86791518
H   -32.31916875 -28.91176590 -11.28326614
H   -29.86313092 -30.68534835 -11.19365029
H   -31.96748153 -30.11310497 -9.34342483 
H   -31.37413726 -32.28816617 -11.47630749
C   -26.50777051 -26.61325753 -7.83561777 
C   -27.44686453 -27.67953406 -7.30267797 
C   -28.16614639 -28.37176078 -8.44351053 
C   -28.84570317 -27.38161545 -9.38821661 
C   -27.89195354 -26.23083411 -9.75466047 
C   -28.55426006 -24.98849533 -10.34588483
O   -26.72227298 -28.59695374 -6.54166688 
O   -29.06378900 -29.26109343 -7.86145959 
O   -29.19390804 -28.13184997 -10.52834310
O   -27.24160303 -25.73074863 -8.60560175 
O   -29.41822584 -25.23385275 -11.40001207
H   -26.09187204 -26.03275926 -7.01301755 
H   -28.19006529 -27.17569773 -6.67843359 
H   -27.42195176 -28.91196498 -9.03390228 
H   -29.74153246 -26.98601752 -8.90333067 
H   -27.15435449 -26.63401369 -10.45231709
H   -29.13745146 -24.51437883 -9.55745278 
H   -27.76177803 -24.28865345 -10.62571984
H   -27.29998007 -29.30844330 -6.30087939 
H   -29.77732597 -29.46064593 -8.45677773 
H   -28.97113684 -25.61901625 -12.13931121
C   -27.88036500 -26.67760149 -15.10788773
C   -26.51835504 -26.60649021 -15.42218889
N   -28.18588630 -28.02281889 -14.94432220
N   -26.02878659 -27.91273873 -15.47029623
C   -27.03935984 -28.78366477 -15.10304445
H   -24.09079396 -27.35270419 -15.85505044
H   -24.28907193 -28.27329506 -14.37615939
C   -28.65398625 -25.54262909 -14.99310072
C   -25.90035380 -25.38754929 -15.60489750
C   -29.48985306 -28.59109790 -14.68660417
H   -28.76361320 -29.30940888 -12.79903143
H   -30.24536388 -27.86152932 -14.96541115
H   -29.63227664 -29.44635858 -15.33847834
O   -20.17051968 -30.29123580 -11.05004552
H   -21.90130164 -30.03030486 -12.11852898
H   -20.59640192 -30.19046231 -10.20584222
N   -26.88987548 -30.02891868 -14.94365468
H   -27.73109769 -30.48909615 -14.65302922
C   -26.68165823 -24.23245301 -15.49229435
C   -28.03109761 -24.30661925 -15.19745615
H   -26.21452006 -23.26731997 -15.63531205
H   -24.84313234 -25.30954879 -15.80944629
H   -28.61577490 -23.40043019 -15.11247261
H   -29.70315182 -25.59744458 -14.73973391
*
