! Freq
%output 
xyzfile=True 
end 
%scf 
maxiter 250 
end
%output
Print[P_Hirshfeld] = 1
end
% maxcore
4000
%pal nprocs 96
end
*xyz 1 1
H   -31.75607902 -29.36754485 -13.81172701
C   -21.64148575 -27.46536918 -9.62922423 
C   -21.99669341 -28.52248362 -8.59313146 
C   -23.50101941 -28.69258460 -8.52675850 
C   -24.21064865 -27.35776353 -8.33215138 
C   -23.67272154 -26.28548272 -9.28573266 
C   -24.12279249 -24.88825553 -8.92005316 
O   -21.37236901 -29.72550973 -8.92210567 
O   -23.77581054 -29.58370731 -7.49686710 
O   -25.56778006 -27.58527288 -8.61254429 
O   -22.26512180 -26.28199559 -9.28521033 
O   -23.90896219 -24.04273744 -10.01090246
H   -20.57061405 -27.27015517 -9.61664008 
H   -21.63581874 -28.16296206 -7.62583080 
H   -23.83251493 -29.09560072 -9.48642150 
H   -24.08315356 -27.04032401 -7.29344300 
H   -24.04179114 -26.51519819 -10.28529131
H   -25.17946835 -24.91134029 -8.64820671 
H   -23.55071878 -24.56272617 -8.04724327 
H   -21.66996950 -30.39662625 -8.32279202 
H   -24.70914878 -29.76257426 -7.44922015 
H   -23.91986883 -23.14287104 -9.72753259 
C   -21.07789691 -28.50066904 -14.81662947
C   -20.32556056 -29.35176351 -13.80099130
C   -21.01984099 -29.30882291 -12.45709271
C   -21.20254611 -27.87054159 -11.99666815
C   -21.83320420 -27.01036040 -13.09803901
C   -21.73952203 -25.53223105 -12.78948748
O   -20.21060604 -30.66462550 -14.25678671
O   -22.04761205 -27.89305110 -10.88043820
O   -21.18419947 -27.21579623 -14.33219097
O   -22.48471021 -24.81741575 -13.73211658
H   -20.50745786 -28.43187274 -15.73900047
H   -19.33274254 -28.90643601 -13.69373278
H   -20.22374023 -27.46570566 -11.72554075
H   -22.88456369 -27.29254995 -13.18026500
H   -22.10893454 -25.34779231 -11.78128543
H   -20.68535161 -25.24384787 -12.83361210
H   -19.86878352 -31.20097916 -13.55331077
H   -22.37000683 -23.89204726 -13.58551195
C   -24.35675755 -30.86174750 -18.23138435
C   -22.84996370 -31.05921915 -18.17775727
C   -22.28407930 -30.70482277 -16.81576639
C   -22.72112996 -29.30452423 -16.39263299
C   -24.24919724 -29.20148595 -16.47436827
C   -24.71504182 -27.76241242 -16.27438452
O   -22.57522351 -32.38462463 -18.49478916
O   -20.90542794 -30.82240249 -16.92269547
O   -22.33750662 -29.04393709 -15.07530105
O   -24.68599017 -29.59421701 -17.75615361
H   -24.69898108 -30.88225142 -19.25977273
H   -22.40317030 -30.38571682 -18.91551450
H   -22.67666578 -31.40765780 -16.07625721
H   -22.27681302 -28.57052770 -17.07225472
H   -24.67249820 -29.85434611 -15.70882469
H   -21.63669422 -32.51248454 -18.47432873
H   -20.51720247 -30.95816881 -16.06394301
C   -27.93848678 -34.54706678 -17.47812514
C   -26.58871616 -35.11231465 -17.07695796
C   -25.59724920 -33.97503113 -16.87919877
C   -25.60870313 -32.95269032 -18.01740580
C   -27.02452963 -32.63866447 -18.51837126
C   -27.11738641 -31.90692234 -19.86094838
O   -26.74841406 -35.85666107 -15.91169094
O   -24.33603787 -34.54566499 -16.72105766
O   -25.01370443 -31.79935684 -17.45741226
O   -27.77671469 -33.81943204 -18.64798058
O   -27.15585297 -30.52128136 -19.69383255
H   -28.64980223 -35.34279458 -17.69417663
H   -26.24264720 -35.74458152 -17.89856508
H   -25.89094844 -33.44321359 -15.97279100
H   -24.99607979 -33.33721700 -18.83366777
H   -27.48222577 -32.00233770 -17.76632313
H   -26.26796153 -32.14602822 -20.49970708
H   -28.00759825 -32.26689460 -20.37679998
H   -25.91003355 -36.20742432 -15.64656857
H   -23.65948145 -33.90031814 -16.87146227
H   -28.04900389 -30.25174442 -19.53254002
C   -31.35501729 -31.75911014 -14.49437192
C   -31.10871341 -33.19899234 -14.05097854
C   -29.79119576 -33.69651856 -14.60913464
C   -29.72319431 -33.51935622 -16.12095137
C   -30.10754016 -32.08270154 -16.48825272
C   -30.27383319 -31.80106565 -17.96877095
O   -31.12588709 -33.26439004 -12.66027825
O   -29.63150254 -35.02529779 -14.23961481
O   -28.37970551 -33.74396633 -16.44621433
O   -31.31414242 -31.70052683 -15.87611905
O   -29.95785406 -30.45242505 -18.25610807
H   -32.35440499 -31.45004919 -14.20299154
H   -31.92094413 -33.80118637 -14.46836817
H   -28.99625092 -33.08231340 -14.17953075
H   -30.37456747 -34.24863591 -16.61098789
H   -29.29665889 -31.46062702 -16.11179451
H   -29.61823642 -32.42925511 -18.55661527
H   -31.29973706 -32.02500736 -18.25864091
H   -30.84605339 -34.12696224 -12.38426030
H   -28.76794225 -35.32968011 -14.49302346
H   -30.74628501 -29.93546689 -18.31914849
C   -30.35669466 -27.58083190 -11.43686870
C   -31.41200635 -28.64984215 -11.16341182
C   -31.07369563 -29.95407599 -11.85913460
C   -30.82902356 -29.71619162 -13.34623139
C   -29.75795199 -28.63242789 -13.51116341
O   -31.55572429 -28.84835283 -9.78946350 
O   -32.13957471 -30.82007713 -11.63744480
O   -30.40390402 -30.90413983 -13.95217396
O   -30.18191166 -27.48849926 -12.81455970
H   -30.70967988 -26.60848031 -11.11348840
H   -32.35021774 -28.27263766 -11.58077796
H   -30.15540343 -30.35516038 -11.42603868
H   -32.25212148 -29.47688273 -9.65272205 
H   -31.85921283 -31.72396813 -11.73329303
C   -26.58372122 -27.34949407 -7.71177250 
C   -27.48086389 -28.57405680 -7.63364430 
C   -28.12215251 -28.82700338 -8.98860913 
C   -28.82929052 -27.58560692 -9.52731252 
C   -27.92913771 -26.34313148 -9.40009927 
C   -28.63904526 -25.00482462 -9.55752657 
O   -26.72696894 -29.67520893 -7.23146773 
O   -28.96585063 -29.93608907 -8.90133100 
O   -29.12432369 -27.86847090 -10.87637512
O   -27.35863109 -26.27590322 -8.11579339 
O   -29.21956595 -24.82971739 -10.80860962
H   -26.18773262 -27.09811469 -6.72917494 
H   -28.26135345 -28.35990905 -6.89739457 
H   -27.32323330 -29.07398599 -9.68679817 
H   -29.74631017 -27.41759204 -8.96128495 
H   -27.14210432 -26.42801892 -10.15324873
H   -29.43086111 -24.92490101 -8.81408816 
H   -27.91294373 -24.21774346 -9.34096830 
H   -27.26886881 -30.45114402 -7.27835845 
H   -29.87527180 -29.67396922 -8.96226983 
H   -28.56189754 -24.91111193 -11.48114349
C   -27.73151971 -26.43362243 -14.70945116
C   -26.37837035 -26.38764436 -14.99590766
N   -28.21397192 -27.64553922 -15.23504276
N   -26.06615041 -27.55206654 -15.72060829
C   -27.20588725 -28.22926534 -15.90613609
H   -24.63382931 -27.23770229 -17.22579468
H   -24.04432895 -27.29316419 -15.56493831
C   -28.37704618 -25.37567318 -14.09249721
C   -25.58798150 -25.31218178 -14.62722110
C   -29.53921879 -28.21902462 -14.97242206
H   -28.81889622 -29.00428240 -13.09950923
H   -30.29374669 -27.48523431 -15.25043987
H   -29.66933391 -29.08415937 -15.61092998
O   -20.24341416 -30.04974436 -11.57681758
H   -22.01346515 -29.75161632 -12.56802087
H   -20.64882935 -30.09043340 -10.71583704
N   -27.33241607 -29.30703404 -16.66160553
H   -28.24360778 -29.59644173 -16.95992798
C   -26.22588792 -24.25710617 -13.99098972
C   -27.59833118 -24.27798704 -13.74862473
H   -25.64183402 -23.40029672 -13.68648505
H   -24.52482402 -25.27539419 -14.80378626
H   -28.07001256 -23.42428565 -13.28027733
H   -29.43216258 -25.40570725 -13.87659527
H   -26.57323703 -29.56510444 -17.27282454
*
